%BLOCK LATTICE_CART
    6.60000000000000    0.00000000000000    0.00000000000000
    0.00000000000000    5.00000000000000    0.00000000000000
    0.00000000000000    0.00000000000000    5.00000000000000
%ENDBLOCK LATTICE_CART

%BLOCK POSITIONS_FRAC
Mn    0.37878787878788    0.50000000000000    0.50000000000000
O    0.62121212121212    0.50000000000000    0.50000000000000
%ENDBLOCK POSITIONS_FRAC

%BLOCK HUBBARD_U
Mn d:0.00000001
%ENDBLOCK HUBBARD_U

%BLOCK HUBBARD_ALPHA
Mn 1 d:0
%ENDBLOCK HUBBARD_ALPHA
